NAME: CMT5_9
TYPE: CVRP
COMMENT: 1291.29 - Cluster Nr.9
DIMENSION: 8
CAPACITY: 200
EDGE_WEIGHT_TYPE: EUC_2D
NODE_COORD_TYPE: TWOD_COORDS
NODE_COORD_SECTION: 
4 13 52
1 9 56
7 2 48
3 5 64
6 8 56
8 35 35
5 8 52
2 2 60
DEPOT_SECTION: 
8
-1
DEMAND_SECTION: 
8 0
5 10
3 11
1 13
4 36
2 5
6 27
7 1
EOF
